; benchmark generated from python API
(set-info :status unknown)
(declare-datatypes ((IntState 0)) (((Mk1 (val1 Int)) (Mk2 (val2 Int)))))
 (declare-fun c_main_~i~6 () Int)
(declare-fun c_main_~k~6 () Int)
(declare-fun c_main_~j~6 () Int)
(assert
 (let (($x39 (<= c_main_~i~6 3)))
 (let (($x74 (exists ((main_~i~6_st IntState) (val!8 Int) )(let ((?x56 (val2 main_~i~6_st)))
 (let (($x102 (<= ?x56 4)))
 (let (($x113 (and (<= c_main_~j~6 (+ (* 2 ?x56) 2)) $x102 (<= ?x56 c_main_~k~6))))
 (let (($x52 (not (= main_~i~6_st (Mk1 val!8)))))
 (and $x52 $x113))))))
 ))
 (let (($x54 (<= c_main_~j~6 (+ (* 2 c_main_~i~6) 2))))
 (let (($x124 (<= c_main_~i~6 4)))
 (let (($x33 (<= c_main_~j~6 (+ (* 2 c_main_~i~6) 1))))
 (let (($x60 (exists ((v_nnf_96 Int) )(let (($x97 (<= v_nnf_96 4)))
 (let (($x83 (<= c_main_~j~6 (+ (* 2 v_nnf_96) 2))))
 (and (<= (+ v_nnf_96 2) c_main_~k~6) $x83 $x97))))
 ))
 (let (($x76 (<= c_main_~i~6 2)))
 (and (and $x33 $x124 $x54 $x76 $x60 $x39) (not (and $x33 $x124 $x54 $x74 $x39)))))))))))
(check-sat)
